data;


param FN:= 8;
param D:= 100;
param U_Original:=
         1         1        3.662222e-01
         2         1        1.928341e+00
         3         1       -1.498624e+00
         4         1       -1.449427e+00
         5         1       -1.551720e+00
         6         1        9.007880e-01
         7         1       -5.405876e-02
         8         1        1.622188e-02
         9         1       -6.787413e-01
        10         1       -6.608793e-01
        11         1       -4.009274e-01
        12         1       -6.230702e-01
        13         1        1.486769e-01
        14         1        3.293655e-01
        15         1       -1.417999e+00
        16         1        1.840012e+00
        17         1       -1.744039e+00
        18         1        9.136612e-01
        19         1        2.591100e-01
        20         1        2.188135e-01
        21         1        6.655069e-02
        22         1       -7.686017e-01
        23         1       -8.920200e-03
        24         1       -1.201587e+00
        25         1       -6.638513e-02
        26         1        5.602660e-02
        27         1        1.383216e+00
        28         1       -1.717686e+00
        29         1       -1.897956e-01
        30         1        1.329332e+00
        31         1        3.464064e-01
        32         1        6.153346e-01
        33         1        5.081267e-01
        34         1       -4.373694e-01
        35         1        1.026327e+00
        36         1       -2.334511e+00
        37         1       -7.611828e-01
        38         1       -1.785921e+00
        39         1       -1.349006e+00
        40         1        1.317429e+00
        41         1       -2.126174e-01
        42         1        1.154327e+00
        43         1        1.746501e+00
        44         1        8.611059e-01
        45         1        5.632746e-02
        46         1        2.412054e-01
        47         1       -3.618865e-01
        48         1        6.254219e-01
        49         1       -5.235509e-01
        50         1       -7.355223e-01
        51         1       -2.203882e+00
        52         1       -5.791216e-01
        53         1        1.264099e+00
        54         1        1.021138e+00
        55         1       -1.144031e+00
        56         1       -2.353908e+00
        57         1       -1.296416e-02
        58         1       -8.700059e-01
        59         1       -7.330734e-01
        60         1       -1.304387e+00
        61         1        1.078719e+00
        62         1        6.236985e-01
        63         1        7.206499e-01
        64         1        2.564414e-01
        65         1       -1.500379e+00
        66         1        2.014509e+00
        67         1        3.016179e-01
        68         1       -3.271420e-01
        69         1        1.531712e-01
        70         1       -1.246075e-01
        71         1        5.820722e-01
        72         1        1.985856e-01
        73         1       -1.035437e+00
        74         1       -9.251175e-01
        75         1        3.386616e-01
        76         1       -1.012949e+00
        77         1       -6.964730e-01
        78         1       -4.720607e-01
        79         1       -1.799490e+00
        80         1       -4.700267e-01
        81         1       -1.806000e+00
        82         1        1.245982e+00
        83         1       -5.669909e-01
        84         1       -4.471249e-01
        85         1       -2.503674e-01
        86         1       -7.997633e-01
        87         1       -6.202693e-01
        88         1       -7.326014e-01
        89         1       -2.116223e-01
        90         1        6.151359e-01
        91         1       -1.589418e+00
        92         1       -1.286333e+00
        93         1        9.883790e-01
        94         1       -1.677241e+00
        95         1       -1.193644e-01
        96         1       -1.696790e+00
        97         1        2.571726e-01
        98         1        8.589859e-01
        99         1       -8.455997e-01
       100         1       -3.793648e-01
         1         2        1.749448e-01
         2         2       -5.507121e-01
         3         2        8.858653e-01
         4         2        8.332253e-02
         5         2        5.216202e-02
         6         2       -3.471167e-01
         7         2       -1.259990e+00
         8         2        9.296780e-01
         9         2        1.648994e-01
        10         2       -1.564172e+00
        11         2       -3.297092e-01
        12         2        1.747191e+00
        13         2       -2.645897e-01
        14         2       -3.417199e-01
        15         2        6.563344e-02
        16         2       -2.264147e-01
        17         2        1.287052e-01
        18         2        1.365628e+00
        19         2       -1.424408e-01
        20         2       -3.865546e-01
        21         2       -6.121598e-01
        22         2       -1.235277e+00
        23         2        5.670693e-01
        24         2       -6.442286e-01
        25         2        1.941384e-01
        26         2       -8.139206e-01
        27         2        5.962160e-01
        28         2       -2.538813e-01
        29         2        9.482476e-01
        30         2        7.969007e-01
        31         2       -3.083942e-02
        32         2        1.224771e+00
        33         2       -1.018768e+00
        34         2        8.438960e-01
        35         2        4.991067e-01
        36         2        9.423300e-01
        37         2        3.538935e-01
        38         2       -8.936336e-01
        39         2        5.158531e-02
        40         2       -2.458207e-01
        41         2       -2.454938e-01
        42         2       -3.913254e-02
        43         2       -1.750816e-01
        44         2        1.380688e+00
        45         2        2.735409e-01
        46         2        1.365168e+00
        47         2        3.749482e-02
        48         2       -9.371442e-01
        49         2        3.688910e-01
        50         2       -9.473253e-01
        51         2       -1.037465e+00
        52         2        1.395853e+00
        53         2        4.001091e-01
        54         2        2.469510e-01
        55         2       -6.771067e-01
        56         2       -1.243158e+00
        57         2        7.176308e-01
        58         2        9.753244e-01
        59         2       -5.415230e-01
        60         2       -5.439258e-01
        61         2       -2.909352e+00
        62         2        8.150619e-01
        63         2        5.645206e-01
        64         2        1.491949e+00
        65         2       -2.515762e-01
        66         2       -1.193470e+00
        67         2        3.718348e-02
        68         2        6.212732e-02
        69         2       -1.301196e-01
        70         2       -6.665826e-01
        71         2       -1.237205e+00
        72         2       -1.401456e+00
        73         2       -1.230797e+00
        74         2        1.026521e+00
        75         2        1.646513e-01
        76         2        4.169442e-01
        77         2       -1.574423e+00
        78         2        4.573420e-01
        79         2        7.324382e-02
        80         2        6.763096e-01
        81         2       -1.756061e+00
        82         2       -1.661008e-01
        83         2        1.318531e+00
        84         2       -8.770229e-02
        85         2        1.036416e+00
        86         2        3.105190e-01
        87         2       -5.266627e-01
        88         2        1.500360e+00
        89         2        5.699771e-01
        90         2        9.782708e-01
        91         2        6.238697e-01
        92         2       -9.206201e-01
        93         2       -4.157412e-01
        94         2       -2.046675e-01
        95         2       -1.379795e+00
        96         2       -2.167245e+00
        97         2       -6.127675e-02
        98         2       -8.201157e-01
        99         2       -1.881172e+00
       100         2       -5.884038e-01
         1         3       -2.180157e+00
         2         3       -8.057592e-01
         3         3        1.067788e+00
         4         3        9.847912e-02
         5         3       -4.338056e-01
         6         3       -1.528871e+00
         7         3        2.059741e-02
         8         3       -6.832244e-01
         9         3       -1.981983e-01
        10         3       -2.079045e-01
        11         3       -1.164123e+00
        12         3       -1.244112e+00
        13         3       -2.891389e-01
        14         3       -6.904970e-01
        15         3       -9.529719e-02
        16         3       -3.279949e-01
        17         3        1.155593e-01
        18         3        1.062588e+00
        19         3       -1.673658e+00
        20         3        1.124418e+00
        21         3        7.100904e-01
        22         3       -6.168083e-01
        23         3       -1.966371e+00
        24         3        6.459215e-01
        25         3        1.511357e+00
        26         3       -1.213316e-01
        27         3       -1.107418e-01
        28         3       -3.802203e-01
        29         3        2.126373e+00
        30         3       -8.253460e-01
        31         3       -3.714126e-01
        32         3       -9.981879e-01
        33         3       -9.392534e-02
        34         3       -6.295040e-01
        35         3        1.013853e+00
        36         3        2.320161e-01
        37         3       -6.885810e-01
        38         3       -1.173075e+00
        39         3        1.255352e+00
        40         3        7.279582e-01
        41         3       -1.979020e-01
        42         3       -8.354264e-02
        43         3        2.923293e-01
        44         3       -2.257606e+00
        45         3        1.572702e-01
        46         3       -4.124120e-01
        47         3        7.950728e-01
        48         3       -1.300887e+00
        49         3       -1.920683e+00
        50         3       -7.270202e-01
        51         3        2.419376e+00
        52         3       -2.308662e-01
        53         3       -9.453728e-01
        54         3        3.955012e-01
        55         3        5.071908e-01
        56         3        1.305928e-01
        57         3        2.324404e-01
        58         3       -9.843423e-01
        59         3       -2.385960e-01
        60         3        9.823838e-01
        61         3       -4.908866e-01
        62         3        1.751431e-01
        63         3        7.248079e-01
        64         3       -9.907786e-01
        65         3       -5.126983e-02
        66         3       -1.623859e-01
        67         3       -1.072184e+00
        68         3       -3.087452e-01
        69         3        1.426751e+00
        70         3        6.660839e-02
        71         3       -1.110974e-01
        72         3       -5.140093e-01
        73         3       -1.000318e+00
        74         3        1.687758e+00
        75         3       -4.187058e-01
        76         3       -1.991343e+00
        77         3        4.304356e-01
        78         3       -5.843040e-01
        79         3       -5.653519e-01
        80         3       -7.582817e-01
        81         3       -4.816920e-02
        82         3       -2.593380e-01
        83         3       -9.902468e-01
        84         3        5.509354e-01
        85         3       -1.541696e+00
        86         3        1.331368e-01
        87         3        2.014194e-01
        88         3        1.328082e+00
        89         3        1.516569e-01
        90         3       -1.069775e+00
        91         3        8.686018e-01
        92         3        3.365118e-01
        93         3       -1.184789e+00
        94         3        6.846978e-01
        95         3        2.557254e-01
        96         3        7.529445e-01
        97         3        2.444866e+00
        98         3       -3.185933e-01
        99         3        1.278862e+00
       100         3        7.195772e-01
         1         4       -8.298550e-01
         2         4        5.459952e-01
         3         4       -2.710771e-01
         4         4        4.350220e-01
         5         4       -1.370335e+00
         6         4       -5.337369e-01
         7         4       -1.328982e+00
         8         4        6.804662e-01
         9         4       -1.019002e+00
        10         4       -2.613083e+00
        11         4       -1.902123e+00
        12         4        7.489893e-01
        13         4       -8.542638e-01
        14         4        7.235334e-02
        15         4        4.350918e-02
        16         4        1.533917e+00
        17         4        5.679466e-01
        18         4       -4.726976e-01
        19         4       -2.249658e+00
        20         4       -3.786046e-01
        21         4       -7.408743e-01
        22         4       -1.465925e+00
        23         4       -2.215550e-01
        24         4        1.431441e+00
        25         4       -1.408828e+00
        26         4       -6.542825e-01
        27         4        2.095632e+00
        28         4       -5.389592e-01
        29         4        8.851365e-01
        30         4       -1.069329e+00
        31         4        1.087032e+00
        32         4       -4.926415e-01
        33         4       -7.813946e-01
        34         4        1.942403e-01
        35         4       -1.875224e+00
        36         4        1.397671e-01
        37         4       -2.009822e+00
        38         4        9.414041e-01
        39         4        1.660914e-01
        40         4        1.088854e+00
        41         4        8.805926e-01
        42         4        2.363537e-02
        43         4        1.464517e-01
        44         4        3.079337e+00
        45         4        2.527423e-01
        46         4       -1.778831e+00
        47         4       -6.820004e-01
        48         4        2.843159e-01
        49         4        3.338949e-01
        50         4        1.624329e-01
        51         4       -4.202449e-01
        52         4       -3.106285e-01
        53         4        1.045790e-01
        54         4        1.642959e-01
        55         4        1.138162e+00
        56         4       -3.904764e-01
        57         4        2.189522e-01
        58         4       -3.281226e-01
        59         4        1.035232e+00
        60         4        1.613280e+00
        61         4        9.424036e-02
        62         4        1.208664e+00
        63         4       -1.288142e+00
        64         4        4.712655e-02
        65         4       -3.169980e-02
        66         4       -7.421736e-01
        67         4       -5.752946e-01
        68         4        4.087091e-01
        69         4       -8.795731e-01
        70         4       -1.139995e+00
        71         4        1.549095e-01
        72         4        6.074283e-01
        73         4       -6.009425e-01
        74         4       -1.162660e+00
        75         4       -2.674302e-01
        76         4       -1.206097e+00
        77         4        2.109153e+00
        78         4        3.838799e-01
        79         4        6.821262e-01
        80         4       -4.917430e-01
        81         4       -6.779289e-02
        82         4       -9.565644e-01
        83         4       -1.234467e+00
        84         4        5.348384e-01
        85         4        1.615594e+00
        86         4       -1.062731e+00
        87         4        4.184965e-01
        88         4       -3.187956e-01
        89         4        1.178867e+00
        90         4       -7.366943e-03
        91         4       -2.485849e+00
        92         4        1.151550e+00
        93         4       -1.008297e+00
        94         4        1.543063e+00
        95         4       -1.360911e+00
        96         4        1.123862e+00
        97         4        1.106664e+00
        98         4       -1.216146e+00
        99         4       -1.235562e+00
       100         4       -7.149811e-01
         1         5       -5.853958e-01
         2         5       -1.364355e+00
         3         5        2.661433e+00
         4         5       -1.590051e-01
         5         5       -1.383358e+00
         6         5       -2.328815e+00
         7         5       -1.156585e+00
         8         5       -1.269997e+00
         9         5        2.831018e-01
        10         5        5.357909e-01
        11         5       -3.969774e-01
        12         5       -8.794681e-01
        13         5        8.145582e-01
        14         5       -1.897943e+00
        15         5       -6.341710e-02
        16         5       -6.364050e-01
        17         5        9.478588e-02
        18         5       -8.490788e-01
        19         5       -3.605289e-01
        20         5       -4.360723e-01
        21         5        1.597116e+00
        22         5       -1.363515e+00
        23         5       -7.438660e-01
        24         5       -1.967863e+00
        25         5        1.036883e+00
        26         5        4.509207e-01
        27         5       -1.562755e-03
        28         5       -9.271720e-01
        29         5       -3.775331e-01
        30         5       -6.925785e-01
        31         5       -1.842232e-01
        32         5       -4.638266e-01
        33         5       -1.027483e-01
        34         5       -1.457775e+00
        35         5       -9.655913e-01
        36         5       -1.112606e+00
        37         5        3.261891e-01
        38         5        2.411808e-01
        39         5       -2.691655e-01
        40         5       -2.569291e-01
        41         5        2.069405e+00
        42         5        1.663094e+00
        43         5       -7.039993e-01
        44         5       -6.132610e-01
        45         5       -1.161368e+00
        46         5       -2.520040e+00
        47         5        7.678390e-02
        48         5       -9.222675e-01
        49         5       -1.422278e+00
        50         5       -3.878768e-01
        51         5        2.408075e+00
        52         5       -1.167187e+00
        53         5       -3.784676e-01
        54         5        3.195640e-01
        55         5        2.583842e-01
        56         5        7.051339e-01
        57         5       -2.703625e-01
        58         5        1.385048e+00
        59         5       -1.205924e+00
        60         5       -6.836234e-01
        61         5        9.873164e-01
        62         5       -1.622015e+00
        63         5       -2.107606e-01
        64         5        8.844113e-01
        65         5        1.764474e-01
        66         5        1.354465e+00
        67         5        1.097443e+00
        68         5        6.282768e-01
        69         5       -1.792594e-01
        70         5        3.295361e-01
        71         5       -8.353315e-01
        72         5        1.067385e+00
        73         5       -2.756510e-01
        74         5        3.399986e-01
        75         5        3.735605e-01
        76         5        1.383199e+00
        77         5        1.346994e+00
        78         5       -1.196361e+00
        79         5       -6.644377e-01
        80         5       -4.108602e-02
        81         5       -2.529987e-02
        82         5        1.626683e-01
        83         5        8.027349e-01
        84         5       -8.023289e-01
        85         5       -1.399674e+00
        86         5        3.509631e-01
        87         5       -1.091762e+00
        88         5        7.689090e-01
        89         5       -5.363601e-01
        90         5       -1.064731e-01
        91         5        1.266808e+00
        92         5       -4.042118e-01
        93         5       -1.301138e-01
        94         5       -5.026616e-01
        95         5       -3.506618e-01
        96         5        9.834933e-01
        97         5       -7.996672e-01
        98         5        1.167629e+00
        99         5        8.110842e-02
       100         5       -6.298645e-01
;
param X_Original:=
    1        1.567543e-01
    2       -9.241884e-01
    3        9.348861e-01
    4        8.909816e-02
    5       -7.249522e-01
    6       -1.320286e+00
    7       -9.189490e-01
    8        8.732014e-01
    9        1.314438e-01
   10       -3.981161e-02
   11       -2.805484e-02
   12       -6.444972e-01
   13       -7.714544e-01
   14        2.658986e-01
   15        7.380135e-01
   16       -7.320852e-01
   17       -1.212706e+00
   18       -1.030031e+00
   19        3.555782e-01
   20        6.020628e-01
   21       -1.115303e+00
   22       -1.063724e+00
   23       -3.001355e-01
   24        1.700519e+00
   25       -4.609304e-01
   26        2.127345e-01
   27        2.513961e+00
   28        1.170387e+00
   29        2.323796e-01
   30        2.681280e+00
   31       -1.088678e-01
   32       -1.557975e+00
   33        1.461884e-01
   34        5.178190e-01
   35       -9.041898e-01
   36       -9.098733e-01
   37       -8.496345e-01
   38       -4.206751e-01
   39       -9.377322e-01
   40       -9.441138e-01
   41        7.154232e-01
   42        1.441648e-01
   43       -1.224926e+00
   44        1.338298e+00
   45       -4.818588e-01
   46       -1.649706e+00
   47       -2.253486e-01
   48       -1.998611e-01
   49       -6.250359e-01
   50       -8.296666e-03
   51       -4.462274e-01
   52       -1.423218e+00
   53       -2.360941e-01
   54        1.585149e+00
   55        1.919233e-01
   56        3.086044e-01
   57        1.390100e-02
   58        1.234257e+00
   59       -3.731418e+00
   60        6.496474e-01
   61        4.704276e-01
   62       -7.534893e-01
   63        2.238326e+00
   64        3.258242e-01
   65        6.764810e-01
   66       -1.479844e-01
   67        2.410018e+00
   68       -8.555065e-01
   69        4.364474e-01
   70        2.291639e-01
   71        1.722392e+00
   72       -1.002614e+00
   73       -8.742869e-02
   74        1.543802e+00
   75        1.221280e+00
   76        1.709051e+00
   77       -2.792234e+00
   78       -3.050206e-01
   79       -1.138184e-01
   80        5.621763e-01
   81       -2.855807e-01
   82        1.529246e-01
   83        2.754501e+00
   84        1.169090e+00
   85        1.465999e+00
   86       -5.059825e-02
   87       -3.196201e+00
   88       -1.114605e+00
   89       -1.294605e-01
   90        2.618230e-01
   91        1.150178e+00
   92       -7.110913e-01
   93        5.347792e-01
   94        1.075447e+00
   95       -4.858588e-01
   96       -2.454199e-01
   97        7.690729e-02
   98       -2.168111e+00
   99        2.189886e-01
  100        5.967505e-01
;
param outliervec_original :=
    1    1
    2    1
    3    1
    4    1
    5    1
    6    1
    7    1
    8    1
    9    1
   10    1
   11    1
   12    1
   13    1
   14    1
   15    1
   16    1
   17    1
   18    1
   19    1
   20    1
   21    1
   22    1
   23    1
   24    1
   25    1
   26    1
   27    0
   28    1
   29    1
   30    0
   31    0
   32    1
   33    1
   34    1
   35    1
   36    1
   37    1
   38    1
   39    1
   40    1
   41    1
   42    1
   43    1
   44    1
   45    1
   46    1
   47    1
   48    1
   49    1
   50    1
   51    1
   52    1
   53    1
   54    1
   55    1
   56    1
   57    1
   58    1
   59    0
   60    1
   61    1
   62    1
   63    0
   64    1
   65    1
   66    1
   67    1
   68    1
   69    1
   70    1
   71    1
   72    1
   73    1
   74    0
   75    0
   76    1
   77    0
   78    1
   79    1
   80    0
   81    1
   82    1
   83    0
   84    1
   85    1
   86    1
   87    0
   88    1
   89    0
   90    1
   91    0
   92    1
   93    0
   94    1
   95    1
   96    1
   97    1
   98    1
   99    1
  100    1
;
param d:= 57;
param r:=5;
param p:=0.860000;
param M:=1000;
param U:=
         1         1        3.662222e-01
         2         1        1.928341e+00
         3         1       -1.449427e+00
         4         1       -1.551720e+00
         5         1        9.007880e-01
         6         1       -5.405876e-02
         7         1       -6.787413e-01
         8         1       -6.608793e-01
         9         1       -4.009274e-01
        10         1       -6.230702e-01
        11         1       -1.417999e+00
        12         1        1.840012e+00
        13         1        9.136612e-01
        14         1        2.591100e-01
        15         1       -7.686017e-01
        16         1       -8.920200e-03
        17         1        5.602660e-02
        18         1        3.464064e-01
        19         1        5.081267e-01
        20         1        1.026327e+00
        21         1       -2.334511e+00
        22         1       -1.349006e+00
        23         1        1.317429e+00
        24         1        1.746501e+00
        25         1        5.632746e-02
        26         1        2.412054e-01
        27         1       -3.618865e-01
        28         1        6.254219e-01
        29         1       -5.235509e-01
        30         1       -7.355223e-01
        31         1       -5.791216e-01
        32         1        1.264099e+00
        33         1       -1.144031e+00
        34         1       -2.353908e+00
        35         1       -1.296416e-02
        36         1       -8.700059e-01
        37         1        1.078719e+00
        38         1        6.236985e-01
        39         1       -1.500379e+00
        40         1        3.016179e-01
        41         1       -1.246075e-01
        42         1       -1.035437e+00
        43         1        3.386616e-01
        44         1       -1.012949e+00
        45         1       -4.720607e-01
        46         1       -1.799490e+00
        47         1       -4.700267e-01
        48         1       -1.806000e+00
        49         1        1.245982e+00
        50         1       -7.997633e-01
        51         1       -2.116223e-01
        52         1        6.151359e-01
        53         1       -1.589418e+00
        54         1       -1.286333e+00
        55         1        9.883790e-01
        56         1       -1.193644e-01
        57         1       -1.696790e+00
         1         2        1.749448e-01
         2         2       -5.507121e-01
         3         2        8.332253e-02
         4         2        5.216202e-02
         5         2       -3.471167e-01
         6         2       -1.259990e+00
         7         2        1.648994e-01
         8         2       -1.564172e+00
         9         2       -3.297092e-01
        10         2        1.747191e+00
        11         2        6.563344e-02
        12         2       -2.264147e-01
        13         2        1.365628e+00
        14         2       -1.424408e-01
        15         2       -1.235277e+00
        16         2        5.670693e-01
        17         2       -8.139206e-01
        18         2       -3.083942e-02
        19         2       -1.018768e+00
        20         2        4.991067e-01
        21         2        9.423300e-01
        22         2        5.158531e-02
        23         2       -2.458207e-01
        24         2       -1.750816e-01
        25         2        2.735409e-01
        26         2        1.365168e+00
        27         2        3.749482e-02
        28         2       -9.371442e-01
        29         2        3.688910e-01
        30         2       -9.473253e-01
        31         2        1.395853e+00
        32         2        4.001091e-01
        33         2       -6.771067e-01
        34         2       -1.243158e+00
        35         2        7.176308e-01
        36         2        9.753244e-01
        37         2       -2.909352e+00
        38         2        8.150619e-01
        39         2       -2.515762e-01
        40         2        3.718348e-02
        41         2       -6.665826e-01
        42         2       -1.230797e+00
        43         2        1.646513e-01
        44         2        4.169442e-01
        45         2        4.573420e-01
        46         2        7.324382e-02
        47         2        6.763096e-01
        48         2       -1.756061e+00
        49         2       -1.661008e-01
        50         2        3.105190e-01
        51         2        5.699771e-01
        52         2        9.782708e-01
        53         2        6.238697e-01
        54         2       -9.206201e-01
        55         2       -4.157412e-01
        56         2       -1.379795e+00
        57         2       -2.167245e+00
         1         3       -2.180157e+00
         2         3       -8.057592e-01
         3         3        9.847912e-02
         4         3       -4.338056e-01
         5         3       -1.528871e+00
         6         3        2.059741e-02
         7         3       -1.981983e-01
         8         3       -2.079045e-01
         9         3       -1.164123e+00
        10         3       -1.244112e+00
        11         3       -9.529719e-02
        12         3       -3.279949e-01
        13         3        1.062588e+00
        14         3       -1.673658e+00
        15         3       -6.168083e-01
        16         3       -1.966371e+00
        17         3       -1.213316e-01
        18         3       -3.714126e-01
        19         3       -9.392534e-02
        20         3        1.013853e+00
        21         3        2.320161e-01
        22         3        1.255352e+00
        23         3        7.279582e-01
        24         3        2.923293e-01
        25         3        1.572702e-01
        26         3       -4.124120e-01
        27         3        7.950728e-01
        28         3       -1.300887e+00
        29         3       -1.920683e+00
        30         3       -7.270202e-01
        31         3       -2.308662e-01
        32         3       -9.453728e-01
        33         3        5.071908e-01
        34         3        1.305928e-01
        35         3        2.324404e-01
        36         3       -9.843423e-01
        37         3       -4.908866e-01
        38         3        1.751431e-01
        39         3       -5.126983e-02
        40         3       -1.072184e+00
        41         3        6.660839e-02
        42         3       -1.000318e+00
        43         3       -4.187058e-01
        44         3       -1.991343e+00
        45         3       -5.843040e-01
        46         3       -5.653519e-01
        47         3       -7.582817e-01
        48         3       -4.816920e-02
        49         3       -2.593380e-01
        50         3        1.331368e-01
        51         3        1.516569e-01
        52         3       -1.069775e+00
        53         3        8.686018e-01
        54         3        3.365118e-01
        55         3       -1.184789e+00
        56         3        2.557254e-01
        57         3        7.529445e-01
         1         4       -8.298550e-01
         2         4        5.459952e-01
         3         4        4.350220e-01
         4         4       -1.370335e+00
         5         4       -5.337369e-01
         6         4       -1.328982e+00
         7         4       -1.019002e+00
         8         4       -2.613083e+00
         9         4       -1.902123e+00
        10         4        7.489893e-01
        11         4        4.350918e-02
        12         4        1.533917e+00
        13         4       -4.726976e-01
        14         4       -2.249658e+00
        15         4       -1.465925e+00
        16         4       -2.215550e-01
        17         4       -6.542825e-01
        18         4        1.087032e+00
        19         4       -7.813946e-01
        20         4       -1.875224e+00
        21         4        1.397671e-01
        22         4        1.660914e-01
        23         4        1.088854e+00
        24         4        1.464517e-01
        25         4        2.527423e-01
        26         4       -1.778831e+00
        27         4       -6.820004e-01
        28         4        2.843159e-01
        29         4        3.338949e-01
        30         4        1.624329e-01
        31         4       -3.106285e-01
        32         4        1.045790e-01
        33         4        1.138162e+00
        34         4       -3.904764e-01
        35         4        2.189522e-01
        36         4       -3.281226e-01
        37         4        9.424036e-02
        38         4        1.208664e+00
        39         4       -3.169980e-02
        40         4       -5.752946e-01
        41         4       -1.139995e+00
        42         4       -6.009425e-01
        43         4       -2.674302e-01
        44         4       -1.206097e+00
        45         4        3.838799e-01
        46         4        6.821262e-01
        47         4       -4.917430e-01
        48         4       -6.779289e-02
        49         4       -9.565644e-01
        50         4       -1.062731e+00
        51         4        1.178867e+00
        52         4       -7.366943e-03
        53         4       -2.485849e+00
        54         4        1.151550e+00
        55         4       -1.008297e+00
        56         4       -1.360911e+00
        57         4        1.123862e+00
         1         5       -5.853958e-01
         2         5       -1.364355e+00
         3         5       -1.590051e-01
         4         5       -1.383358e+00
         5         5       -2.328815e+00
         6         5       -1.156585e+00
         7         5        2.831018e-01
         8         5        5.357909e-01
         9         5       -3.969774e-01
        10         5       -8.794681e-01
        11         5       -6.341710e-02
        12         5       -6.364050e-01
        13         5       -8.490788e-01
        14         5       -3.605289e-01
        15         5       -1.363515e+00
        16         5       -7.438660e-01
        17         5        4.509207e-01
        18         5       -1.842232e-01
        19         5       -1.027483e-01
        20         5       -9.655913e-01
        21         5       -1.112606e+00
        22         5       -2.691655e-01
        23         5       -2.569291e-01
        24         5       -7.039993e-01
        25         5       -1.161368e+00
        26         5       -2.520040e+00
        27         5        7.678390e-02
        28         5       -9.222675e-01
        29         5       -1.422278e+00
        30         5       -3.878768e-01
        31         5       -1.167187e+00
        32         5       -3.784676e-01
        33         5        2.583842e-01
        34         5        7.051339e-01
        35         5       -2.703625e-01
        36         5        1.385048e+00
        37         5        9.873164e-01
        38         5       -1.622015e+00
        39         5        1.764474e-01
        40         5        1.097443e+00
        41         5        3.295361e-01
        42         5       -2.756510e-01
        43         5        3.735605e-01
        44         5        1.383199e+00
        45         5       -1.196361e+00
        46         5       -6.644377e-01
        47         5       -4.108602e-02
        48         5       -2.529987e-02
        49         5        1.626683e-01
        50         5        3.509631e-01
        51         5       -5.363601e-01
        52         5       -1.064731e-01
        53         5        1.266808e+00
        54         5       -4.042118e-01
        55         5       -1.301138e-01
        56         5       -3.506618e-01
        57         5        9.834933e-01
;

param theta:=
    1        1.401543e+00
    2        1.861116e+00
    3        1.463654e-01
    4       -2.463558e-01
    5        1.166069e+00
;
param X_true:=
    1        4.159689e-02
    2       -1.656616e-01
    3       -2.154528e+00
    4       -3.416717e+00
    5       -2.191375e+00
    6       -3.438993e+00
    7       -9.224424e-02
    8       -2.599269e+00
    9       -1.340235e+00
   10        9.863316e-01
   11       -1.963850e+00
   12        9.894828e-01
   13        3.104021e+00
   14       -1.309566e-02
   15       -4.695315e+00
   16       -5.774671e-02
   17       -7.670445e-01
   18       -1.088678e-01
   19       -1.124941e+00
   20        1.851756e+00
   21       -2.815980e+00
   22       -1.965726e+00
   23        9.276371e-01
   24        1.307745e+00
   25       -8.054440e-01
   26        3.181172e-01
   27       -6.349593e-02
   28       -2.203453e+00
   29       -2.069083e+00
   30       -3.392666e+00
   31        4.678939e-01
   32        1.910885e+00
   33       -2.768446e+00
   34       -4.675218e+00
   35        9.822438e-01
   36        2.147663e+00
   37       -2.846556e+00
   38        2.275575e-01
   39       -2.365003e+00
   40        1.756423e+00
   41       -7.403747e-01
   42       -4.061659e+00
   43        1.221280e+00
   44        9.748606e-01
   45       -1.385579e+00
   46       -3.411321e+00
   47        5.621763e-01
   48       -5.819269e+00
   49        1.824544e+00
   50        1.475531e-01
   51       -1.294605e-01
   52        2.403896e+00
   53        1.150178e+00
   54       -4.222007e+00
   55        5.347792e-01
   56       -2.771450e+00
   57       -5.431461e+00
;
param X:=
    1        1.567543e-01
    2       -9.241884e-01
    3        8.909816e-02
    4       -7.249522e-01
    5       -1.320286e+00
    6       -9.189490e-01
    7        1.314438e-01
    8       -3.981161e-02
    9       -2.805484e-02
   10       -6.444972e-01
   11        7.380135e-01
   12       -7.320852e-01
   13       -1.030031e+00
   14        3.555782e-01
   15       -1.063724e+00
   16       -3.001355e-01
   17        2.127345e-01
   18       -1.088678e-01
   19        1.461884e-01
   20       -9.041898e-01
   21       -9.098733e-01
   22       -9.377322e-01
   23       -9.441138e-01
   24       -1.224926e+00
   25       -4.818588e-01
   26       -1.649706e+00
   27       -2.253486e-01
   28       -1.998611e-01
   29       -6.250359e-01
   30       -8.296666e-03
   31       -1.423218e+00
   32       -2.360941e-01
   33        1.919233e-01
   34        3.086044e-01
   35        1.390100e-02
   36        1.234257e+00
   37        4.704276e-01
   38       -7.534893e-01
   39        6.764810e-01
   40        2.410018e+00
   41        2.291639e-01
   42       -8.742869e-02
   43        1.221280e+00
   44        1.709051e+00
   45       -3.050206e-01
   46       -1.138184e-01
   47        5.621763e-01
   48       -2.855807e-01
   49        1.529246e-01
   50       -5.059825e-02
   51       -1.294605e-01
   52        2.618230e-01
   53        1.150178e+00
   54       -7.110913e-01
   55        5.347792e-01
   56       -4.858588e-01
   57       -2.454199e-01
;
param outliervec:=
    1    1
    2    1
    3    1
    4    1
    5    1
    6    1
    7    1
    8    1
    9    1
   10    1
   11    1
   12    1
   13    1
   14    1
   15    1
   16    1
   17    1
   18    0
   19    1
   20    1
   21    1
   22    1
   23    1
   24    1
   25    1
   26    1
   27    1
   28    1
   29    1
   30    1
   31    1
   32    1
   33    1
   34    1
   35    1
   36    1
   37    1
   38    1
   39    1
   40    1
   41    1
   42    1
   43    0
   44    1
   45    1
   46    1
   47    0
   48    1
   49    1
   50    1
   51    0
   52    1
   53    0
   54    1
   55    0
   56    1
   57    1
; 
param greedy_time :=         2.004952e-01
;